22617131385894767175010,1,1,2,07,1,1,2,02,14,1,2,05,8,1,2,014,12,1,2,015,1,1,2,014,14,1,2,07,10,1,2,014,5,1,2,04,6,1,2,04,5,1,2,06,9,1,2,09,13,1,2,012,10,1,2,01,14,1,2,08,9,1,2,015,11,1,2,08,9,1,2,01,7,1,2,011,15,1,2,015,7,1,2,06,10,1,2,012,14,1,2,02,13,1,2,08,13,1,2,011,14,1,2,02,5,1,2,010,4,1,2,09,1,1,2,07,15,1,2,011,11,1,2,01,14,1,2,04,13,1,2,014,3,1,2,08,15,1,2,01,6,1,2,02,9,1,2,010,7,1,2,07,5,1,2,05,1,1,2,04,8,1,2,013,15,1,2,07,3,1,2,012,7,1,2,08,10,1,2,013,6,1,2,014,7,1,2,014,2,1,2,011,2,1,2,01,11,1,2,0